p cnf 468 354
d 0.875 0.125
d 0.875 0.125
d 0.875 0.125
d 0.875 0.125
d 0.875 0.125
d 0.875 0.125
d 0.875 0.125
d 0.875 0.125
d 0.875 0.125
d 0.875 0.125
d 0.875 0.125
d 0.875 0.125
d 0.875 0.125
d 0.875 0.125
d 0.875 0.125
d 0.875 0.125
d 0.875 0.125
d 0.875 0.125
d 0.875 0.125
d 0.875 0.125
d 0.875 0.125
d 0.875 0.125
d 0.875 0.125
d 0.875 0.125
d 0.875 0.125
d 0.875 0.125
d 0.875 0.125
d 0.875 0.125
d 0.875 0.125
d 0.875 0.125
d 0.875 0.125
d 0.875 0.125
d 0.875 0.125
d 0.875 0.125
d 0.875 0.125
d 0.875 0.125
d 0.875 0.125
d 0.875 0.125
d 0.875 0.125
d 0.875 0.125
d 0.875 0.125
d 0.875 0.125
d 0.875 0.125
d 0.875 0.125
d 0.875 0.125
d 0.875 0.125
d 0.875 0.125
d 0.875 0.125
d 0.875 0.125
d 0.875 0.125
d 0.875 0.125
d 0.875 0.125
d 0.875 0.125
d 0.875 0.125
d 0.875 0.125
d 0.875 0.125
d 0.875 0.125
d 0.875 0.125
d 0.875 0.125
d 0.875 0.125
d 0.875 0.125
d 0.875 0.125
d 0.875 0.125
d 0.875 0.125
d 0.875 0.125
d 0.875 0.125
d 0.875 0.125
d 0.875 0.125
d 0.875 0.125
d 0.875 0.125
d 0.875 0.125
d 0.875 0.125
d 0.875 0.125
d 0.875 0.125
d 0.875 0.125
d 0.875 0.125
d 0.875 0.125
d 0.875 0.125
d 0.875 0.125
d 0.875 0.125
d 0.875 0.125
d 0.875 0.125
d 0.875 0.125
d 0.875 0.125
d 0.875 0.125
d 0.875 0.125
d 0.875 0.125
d 0.875 0.125
d 0.875 0.125
d 0.875 0.125
d 0.875 0.125
d 0.875 0.125
d 0.875 0.125
d 0.875 0.125
d 0.875 0.125
d 0.875 0.125
d 0.875 0.125
d 0.875 0.125
d 0.875 0.125
d 0.875 0.125
d 0.875 0.125
d 0.875 0.125
d 0.875 0.125
d 0.875 0.125
d 0.875 0.125
d 0.875 0.125
d 0.875 0.125
d 0.875 0.125
d 0.875 0.125
d 0.875 0.125
d 0.875 0.125
d 0.875 0.125
d 0.875 0.125
d 0.875 0.125
d 0.875 0.125
d 0.875 0.125
d 0.875 0.125
d 0.875 0.125
d 0.875 0.125
d 0.875 0.125
d 0.875 0.125
d 0.875 0.125
d 0.875 0.125
d 0.875 0.125
d 0.875 0.125
d 0.875 0.125
d 0.875 0.125
d 0.875 0.125
d 0.875 0.125
d 0.875 0.125
d 0.875 0.125
d 0.875 0.125
d 0.875 0.125
d 0.875 0.125
d 0.875 0.125
d 0.875 0.125
d 0.875 0.125
d 0.875 0.125
d 0.875 0.125
d 0.875 0.125
d 0.875 0.125
d 0.875 0.125
d 0.875 0.125
d 0.875 0.125
d 0.875 0.125
d 0.875 0.125
d 0.875 0.125
d 0.875 0.125
d 0.875 0.125
d 0.875 0.125
d 0.875 0.125
d 0.875 0.125
d 0.875 0.125
d 0.875 0.125
d 0.875 0.125
d 0.875 0.125
d 0.875 0.125
d 0.875 0.125
d 0.875 0.125
d 0.875 0.125
d 0.875 0.125
d 0.875 0.125
d 0.875 0.125
d 0.875 0.125
d 0.875 0.125
d 0.875 0.125
d 0.875 0.125
d 0.875 0.125
d 0.875 0.125
d 0.875 0.125
d 0.875 0.125
d 0.875 0.125
d 0.875 0.125
d 0.875 0.125
d 0.875 0.125
d 0.875 0.125
454
-448
410 -415 -0
415 -410 -0
461 -377 -2
377 -461 -2
358 -367 -4
367 -358 -4
391 -437 -6
437 -391 -6
409 -449 -8
449 -409 -8
450 -373 -10
373 -450 -10
423 -455 -12
455 -423 -12
428 -400 -14
400 -428 -14
386 -456 -16
456 -386 -16
420 -379 -18
379 -420 -18
360 -450 -20
450 -360 -20
413 -363 -22
363 -413 -22
413 -363 -24
363 -413 -24
370 -368 -26
368 -370 -26
465 -357 -28
357 -465 -28
425 -384 -30
384 -425 -30
425 -444 -32
444 -425 -32
465 -424 -34
424 -465 -34
361 -407 -36
407 -361 -36
409 -447 -38
447 -409 -38
383 -406 -40
406 -383 -40
434 -382 -42
382 -434 -42
384 -402 -44
402 -384 -44
376 -372 -46
372 -376 -46
386 -448 -48
448 -386 -48
465 -413 -50
413 -465 -50
449 -395 -52
395 -449 -52
396 -392 -54
392 -396 -54
407 -395 -56
395 -407 -56
389 -418 -58
418 -389 -58
433 -446 -60
446 -433 -60
376 -435 -62
435 -376 -62
387 -447 -64
447 -387 -64
391 -431 -66
431 -391 -66
428 -400 -68
400 -428 -68
428 -414 -70
414 -428 -70
367 -413 -72
413 -367 -72
397 -436 -74
436 -397 -74
372 -371 -76
371 -372 -76
408 -386 -78
386 -408 -78
446 -353 -80
353 -446 -80
397 -368 -82
368 -397 -82
428 -421 -84
421 -428 -84
373 -450 -86
450 -373 -86
396 -374 -88
374 -396 -88
428 -400 -90
400 -428 -90
407 -395 -92
395 -407 -92
401 -383 -94
383 -401 -94
447 -387 -96
387 -447 -96
430 -432 -98
432 -430 -98
459 -365 -100
365 -459 -100
383 -430 -102
430 -383 -102
467 -367 -104
367 -467 -104
423 -374 -106
374 -423 -106
408 -404 -108
404 -408 -108
462 -413 -110
413 -462 -110
370 -446 -112
446 -370 -112
402 -352 -114
352 -402 -114
420 -379 -116
379 -420 -116
409 -464 -118
464 -409 -118
375 -444 -120
444 -375 -120
384 -425 -122
425 -384 -122
409 -464 -124
464 -409 -124
432 -430 -126
430 -432 -126
435 -419 -128
419 -435 -128
361 -407 -130
407 -361 -130
426 -419 -132
419 -426 -132
412 -440 -134
440 -412 -134
397 -416 -136
416 -397 -136
356 -366 -138
366 -356 -138
396 -401 -140
401 -396 -140
466 -433 -142
433 -466 -142
460 -458 -144
458 -460 -144
448 -386 -146
386 -448 -146
355 -399 -148
399 -355 -148
439 -371 -150
371 -439 -150
467 -358 -152
358 -467 -152
440 -363 -154
363 -440 -154
420 -405 -156
405 -420 -156
404 -361 -158
361 -404 -158
416 -402 -160
402 -416 -160
386 -448 -162
448 -386 -162
413 -394 -164
394 -413 -164
384 -366 -166
366 -384 -166
394 -410 -168
410 -394 -168
373 -413 -170
413 -373 -170
381 -454 -172
454 -381 -172
431 -394 -174
394 -431 -174
413 -391 -176
391 -413 -176
446 -388 -178
388 -446 -178
422 -418 -180
418 -422 -180
401 -383 -182
383 -401 -182
450 -364 -184
364 -450 -184
442 -413 -186
413 -442 -186
391 -381 -188
381 -391 -188
408 -454 -190
454 -408 -190
441 -434 -192
434 -441 -192
437 -391 -194
391 -437 -194
460 -461 -196
461 -460 -196
429 -446 -198
446 -429 -198
378 -396 -200
396 -378 -200
423 -451 -202
451 -423 -202
386 -456 -204
456 -386 -204
383 -362 -206
362 -383 -206
417 -359 -208
359 -417 -208
357 -360 -210
360 -357 -210
379 -410 -212
410 -379 -212
411 -464 -214
464 -411 -214
465 -398 -216
398 -465 -216
385 -453 -218
453 -385 -218
383 -353 -220
353 -383 -220
392 -354 -222
354 -392 -222
365 -465 -224
465 -365 -224
361 -393 -226
393 -361 -226
411 -464 -228
464 -411 -228
377 -461 -230
461 -377 -230
372 -441 -232
441 -372 -232
426 -419 -234
419 -426 -234
385 -369 -236
369 -385 -236
381 -393 -238
393 -381 -238
383 -441 -240
441 -383 -240
386 -456 -242
456 -386 -242
399 -388 -244
388 -399 -244
391 -460 -246
460 -391 -246
403 -405 -248
405 -403 -248
454 -386 -250
386 -454 -250
438 -435 -252
435 -438 -252
401 -383 -254
383 -401 -254
355 -443 -256
443 -355 -256
359 -395 -258
395 -359 -258
361 -452 -260
452 -361 -260
370 -464 -262
464 -370 -262
383 -457 -264
457 -383 -264
403 -405 -266
405 -403 -266
361 -395 -268
395 -361 -268
465 -414 -270
414 -465 -270
361 -407 -272
407 -361 -272
409 -368 -274
368 -409 -274
374 -451 -276
451 -374 -276
392 -403 -278
403 -392 -278
363 -442 -280
442 -363 -280
360 -421 -282
421 -360 -282
386 -427 -284
427 -386 -284
357 -421 -286
421 -357 -286
437 -355 -288
355 -437 -288
360 -357 -290
357 -360 -290
464 -359 -292
359 -464 -292
384 -352 -294
352 -384 -294
356 -366 -296
366 -356 -296
393 -386 -298
386 -393 -298
383 -353 -300
353 -383 -300
380 -372 -302
372 -380 -302
463 -455 -304
455 -463 -304
401 -378 -306
378 -401 -306
365 -445 -308
445 -365 -308
383 -416 -310
416 -383 -310
383 -434 -312
434 -383 -312
409 -464 -314
464 -409 -314
413 -455 -316
455 -413 -316
384 -356 -318
356 -384 -318
396 -354 -320
354 -396 -320
467 -358 -322
358 -467 -322
373 -364 -324
364 -373 -324
432 -406 -326
406 -432 -326
409 -370 -328
370 -409 -328
411 -464 -330
464 -411 -330
414 -364 -332
364 -414 -332
433 -395 -334
395 -433 -334
384 -352 -336
352 -384 -336
381 -404 -338
404 -381 -338
401 -378 -340
378 -401 -340
383 -401 -342
401 -383 -342
398 -396 -344
396 -398 -344
401 -457 -346
457 -401 -346
424 -381 -348
381 -424 -348
390 -377 -350
377 -390 -350